3	25
505	860	194	126	388	3	267	206	516	911	224	572	689	199	324	657	575	309	581	955	806	223	721	317	27	
416	637	578	213	98	355	713	792	115	135	510	427	764	474	36	739	869	187	538	975	273	110	835	372	195	
2839	2839	2839	
